
  17    4
  10   10   10   10

   0   0   0   0   0   5 2 3 6 8 10 
  10  10  10  10  10   3 16 12 5 
   2  10  10  10  10   1 4 
   1  10  10  10  10   4 16 15 12 11 
   7  10  10  10  10   1 7 
   9  10  10  10  10   1 7 
   3  10  10  10  10   2 15 9 
   3  10  10  10  10   3 15 14 13 
   5  10  10  10  10   1 11 
   5  10  10  10  10   1 12 
   8  10  10  10  10   2 14 13 
   3  10  10  10  10   2 14 13 
   5  10  10  10  10   1 17
   4  10  10  10  10   1 17
   2  10  10  10  10   1 17
   8  10  10  10  10   1 17
   0   0   0   0   0   0 
